presolving:
(round 1, fast)       0 del vars, 3 del conss, 0 add conss, 17100 chg bounds, 0 chg sides, 0 chg coeffs, 0 upgd conss, 0 impls, 0 clqs
(round 2, fast)       150 del vars, 3 del conss, 0 add conss, 28200 chg bounds, 0 chg sides, 0 chg coeffs, 0 upgd conss, 0 impls, 0 clqs
   (0.4s) running MILP presolver
   (0.4s) MILP presolver found nothing
   (0.5s) probing cycle finished: starting next cycle
   (0.5s) probing: 1/50 (2.0%) - 0 fixings, 0 aggregations, 0 implications, 0 bound changes
   (0.5s) probing aborted: 50/50 successive totally useless probings
   (0.5s) symmetry computation started: requiring (bin +, int -, cont +), (fixed: bin -, int +, cont -)
   (0.6s) no symmetry present
presolving (3 rounds: 3 fast, 1 medium, 1 exhaustive):
 150 deleted vars, 3 deleted constraints, 0 added constraints, 28200 tightened bounds, 0 added holes, 0 changed sides, 0 changed coefficients
 0 implications, 0 cliques
presolved problem has 11150 variables (50 bin, 0 int, 0 impl, 11100 cont) and 322 constraints
    322 constraints of type <linear>
Presolving Time: 0.44

 time | node  | left  |LP iter|LP it/n|mem/heur|mdpt |vars |cons |rows |cuts |sepa|confs|strbr|  dualbound   | primalbound  |  gap   | compl. 
p 0.7s|     1 |     0 |   222 |     - |   locks|   0 |  11k| 322 | 322 |   0 |  0 |   0 |   0 | 0.000000e+00 | 2.318163e+06 |    Inf | unknown
  0.8s|     1 |     0 |   540 |     - |    68M |   0 |  11k| 322 | 322 |   0 |  0 |   0 |   0 | 2.149834e+06 | 2.318163e+06 |   7.83%| unknown
r 0.8s|     1 |     0 |   540 |     - |simplero|   0 |  11k| 322 | 322 |   0 |  0 |   0 |   0 | 2.149834e+06 | 2.310283e+06 |   7.46%| unknown
r 1.0s|     1 |     0 |   540 |     - |shifting|   0 |  11k| 322 | 322 |   0 |  0 |   0 |   0 | 2.149834e+06 | 2.305493e+06 |   7.24%| unknown
  1.2s|     1 |     0 |   865 |     - |    73M |   0 |  11k| 322 | 370 |  48 |  1 |   0 |   0 | 2.166183e+06 | 2.305493e+06 |   6.43%| unknown
r 1.2s|     1 |     0 |   865 |     - |shifting|   0 |  11k| 322 | 370 |  48 |  1 |   0 |   0 | 2.166183e+06 | 2.304327e+06 |   6.38%| unknown
  1.7s|     1 |     0 |  1128 |     - |    74M |   0 |  11k| 322 | 416 |  94 |  2 |   0 |   0 | 2.173902e+06 | 2.304327e+06 |   6.00%| unknown
r 1.8s|     1 |     0 |  1128 |     - |shifting|   0 |  11k| 322 | 416 |  94 |  2 |   0 |   0 | 2.173902e+06 | 2.303050e+06 |   5.94%| unknown
  2.3s|     1 |     0 |  1496 |     - |    76M |   0 |  11k| 322 | 464 | 142 |  3 |   0 |   0 | 2.178379e+06 | 2.303050e+06 |   5.72%| unknown
  3.3s|     1 |     0 |  2098 |     - |    77M |   0 |  11k| 322 | 509 | 187 |  4 |   0 |   0 | 2.180586e+06 | 2.303050e+06 |   5.62%| unknown
  3.9s|     1 |     0 |  2511 |     - |    77M |   0 |  11k| 322 | 549 | 227 |  5 |   0 |   0 | 2.182214e+06 | 2.303050e+06 |   5.54%| unknown
  4.6s|     1 |     0 |  2833 |     - |    78M |   0 |  11k| 322 | 593 | 271 |  6 |   0 |   0 | 2.183420e+06 | 2.303050e+06 |   5.48%| unknown
r 4.7s|     1 |     0 |  2833 |     - |shifting|   0 |  11k| 322 | 593 | 271 |  6 |   0 |   0 | 2.183420e+06 | 2.302560e+06 |   5.46%| unknown
  5.5s|     1 |     0 |  3231 |     - |    81M |   0 |  11k| 322 | 630 | 308 |  7 |   0 |   0 | 2.184173e+06 | 2.302560e+06 |   5.42%| unknown
r 5.5s|     1 |     0 |  3231 |     - |shifting|   0 |  11k| 322 | 630 | 308 |  7 |   0 |   0 | 2.184173e+06 | 2.300912e+06 |   5.34%| unknown
 time | node  | left  |LP iter|LP it/n|mem/heur|mdpt |vars |cons |rows |cuts |sepa|confs|strbr|  dualbound   | primalbound  |  gap   | compl. 
  6.0s|     1 |     0 |  3540 |     - |    81M |   0 |  11k| 322 | 669 | 347 |  8 |   0 |   0 | 2.184796e+06 | 2.300912e+06 |   5.31%| unknown
r 6.0s|     1 |     0 |  3540 |     - |shifting|   0 |  11k| 322 | 669 | 347 |  8 |   0 |   0 | 2.184796e+06 | 2.298467e+06 |   5.20%| unknown
  6.5s|     1 |     0 |  3913 |     - |    82M |   0 |  11k| 322 | 701 | 379 |  9 |   0 |   0 | 2.185178e+06 | 2.298467e+06 |   5.18%| unknown
r 6.5s|     1 |     0 |  3913 |     - |shifting|   0 |  11k| 322 | 701 | 379 |  9 |   0 |   0 | 2.185178e+06 | 2.296167e+06 |   5.08%| unknown
  7.0s|     1 |     0 |  4385 |     - |    84M |   0 |  11k| 322 | 731 | 409 | 10 |   0 |   0 | 2.185507e+06 | 2.296167e+06 |   5.06%| unknown
r 7.0s|     1 |     0 |  4385 |     - |simplero|   0 |  11k| 322 | 731 | 409 | 10 |   0 |   0 | 2.185507e+06 | 2.281989e+06 |   4.41%| unknown
r 7.1s|     1 |     0 |  4385 |     - |shifting|   0 |  11k| 322 | 731 | 409 | 10 |   0 |   0 | 2.185507e+06 | 2.277048e+06 |   4.19%| unknown
  7.5s|     1 |     0 |  4720 |     - |    84M |   0 |  11k| 322 | 753 | 431 | 11 |   0 |   0 | 2.185751e+06 | 2.277048e+06 |   4.18%| unknown
  8.0s|     1 |     0 |  5186 |     - |    88M |   0 |  11k| 322 | 778 | 456 | 12 |   0 |   0 | 2.186182e+06 | 2.277048e+06 |   4.16%| unknown
  8.6s|     1 |     0 |  5787 |     - |    88M |   0 |  11k| 322 | 808 | 486 | 13 |   0 |   0 | 2.186482e+06 | 2.277048e+06 |   4.14%| unknown
r 8.6s|     1 |     0 |  5787 |     - |shifting|   0 |  11k| 322 | 808 | 486 | 13 |   0 |   0 | 2.186482e+06 | 2.274286e+06 |   4.02%| unknown
  9.0s|     1 |     0 |  6171 |     - |    89M |   0 |  11k| 322 | 840 | 518 | 14 |   0 |   0 | 2.186695e+06 | 2.274286e+06 |   4.01%| unknown
r 9.1s|     1 |     0 |  6171 |     - |shifting|   0 |  11k| 322 | 840 | 518 | 14 |   0 |   0 | 2.186695e+06 | 2.273123e+06 |   3.95%| unknown
  9.5s|     1 |     0 |  6591 |     - |    90M |   0 |  11k| 322 | 869 | 547 | 15 |   0 |   0 | 2.186912e+06 | 2.273123e+06 |   3.94%| unknown
 10.3s|     1 |     0 |  7145 |     - |    94M |   0 |  11k| 322 | 895 | 575 | 16 |   0 |   0 | 2.187063e+06 | 2.273123e+06 |   3.93%| unknown
 time | node  | left  |LP iter|LP it/n|mem/heur|mdpt |vars |cons |rows |cuts |sepa|confs|strbr|  dualbound   | primalbound  |  gap   | compl. 
 11.2s|     1 |     0 |  8195 |     - |    95M |   0 |  11k| 322 | 919 | 599 | 17 |   0 |   0 | 2.187262e+06 | 2.273123e+06 |   3.93%| unknown
 12.3s|     1 |     0 |  8935 |     - |    95M |   0 |  11k| 322 | 945 | 625 | 18 |   0 |   0 | 2.187517e+06 | 2.273123e+06 |   3.91%| unknown
 13.1s|     1 |     0 |  9455 |     - |    97M |   0 |  11k| 322 | 972 | 652 | 19 |   0 |   0 | 2.187636e+06 | 2.273123e+06 |   3.91%| unknown
 13.9s|     1 |     0 |  9893 |     - |   100M |   0 |  11k| 322 | 998 | 678 | 20 |   0 |   0 | 2.187713e+06 | 2.273123e+06 |   3.90%| unknown
 15.0s|     1 |     0 | 10549 |     - |   102M |   0 |  11k| 322 |1023 | 703 | 21 |   0 |   0 | 2.187832e+06 | 2.273123e+06 |   3.90%| unknown
 16.6s|     1 |     0 | 11524 |     - |   102M |   0 |  11k| 322 |1045 | 729 | 22 |   0 |   0 | 2.187977e+06 | 2.273123e+06 |   3.89%| unknown
 18.0s|     1 |     0 | 12324 |     - |   103M |   0 |  11k| 322 |1074 | 758 | 23 |   0 |   0 | 2.188164e+06 | 2.273123e+06 |   3.88%| unknown
 20.0s|     1 |     0 | 13167 |     - |   105M |   0 |  11k| 322 |1104 | 788 | 24 |   0 |   0 | 2.188328e+06 | 2.273123e+06 |   3.87%| unknown
 22.3s|     1 |     0 | 13440 |     - |   106M |   0 |  11k| 322 |1133 | 817 | 25 |   0 |   0 | 2.188389e+06 | 2.273123e+06 |   3.87%| unknown
 23.0s|     1 |     0 | 13670 |     - |   107M |   0 |  11k| 322 |1155 | 839 | 26 |   0 |   0 | 2.188432e+06 | 2.273123e+06 |   3.87%| unknown
 23.8s|     1 |     0 | 14099 |     - |   107M |   0 |  11k| 322 |1174 | 858 | 27 |   0 |   0 | 2.188514e+06 | 2.273123e+06 |   3.87%| unknown
 24.8s|     1 |     0 | 14512 |     - |   108M |   0 |  11k| 322 |1179 | 872 | 28 |   0 |   0 | 2.188584e+06 | 2.273123e+06 |   3.86%| unknown
r25.1s|     1 |     0 | 16212 |     - |intshift|   0 |  11k| 322 |1179 | 872 | 28 |   0 |   0 | 2.188584e+06 | 2.246947e+06 |   2.67%| unknown
d25.9s|     1 |     0 | 17393 |     - |farkasdi|   0 |  11k| 322 |1179 |   0 | 28 |   0 |   0 | 2.188584e+06 | 2.244980e+06 |   2.58%| unknown
d26.0s|     1 |     0 | 17551 |     - |farkasdi|   0 |  11k| 322 |1179 |   0 | 28 |   0 |   0 | 2.188584e+06 | 2.241681e+06 |   2.43%| unknown
 time | node  | left  |LP iter|LP it/n|mem/heur|mdpt |vars |cons |rows |cuts |sepa|confs|strbr|  dualbound   | primalbound  |  gap   | compl. 
d26.0s|     1 |     0 | 17583 |     - |farkasdi|   0 |  11k| 322 |1179 |   0 | 28 |   0 |   0 | 2.188584e+06 | 2.238214e+06 |   2.27%| unknown
d26.0s|     1 |     0 | 17705 |     - |farkasdi|   0 |  11k| 322 |1179 |   0 | 28 |   0 |   0 | 2.188584e+06 | 2.235121e+06 |   2.13%| unknown
d26.2s|     1 |     0 | 18162 |     - |farkasdi|   0 |  11k| 322 |1179 |   0 | 28 |   0 |   0 | 2.188584e+06 | 2.231448e+06 |   1.96%| unknown
d26.3s|     1 |     0 | 18601 |     - |farkasdi|   0 |  11k| 322 |1179 |   0 | 28 |   0 |   0 | 2.188584e+06 | 2.228652e+06 |   1.83%| unknown
d26.4s|     1 |     0 | 18669 |     - |farkasdi|   0 |  11k| 322 |1179 |   0 | 28 |   0 |   0 | 2.188584e+06 | 2.225593e+06 |   1.69%| unknown
d26.5s|     1 |     0 | 18823 |     - |farkasdi|   0 |  11k| 322 |1179 |   0 | 28 |   0 |   0 | 2.188584e+06 | 2.222545e+06 |   1.55%| unknown
d26.6s|     1 |     0 | 19045 |     - |farkasdi|   0 |  11k| 322 |1179 |   0 | 28 |   0 |   0 | 2.188584e+06 | 2.219962e+06 |   1.43%| unknown
d26.6s|     1 |     0 | 19117 |     - |farkasdi|   0 |  11k| 322 |1179 |   0 | 28 |   0 |   0 | 2.188584e+06 | 2.215644e+06 |   1.24%| unknown
d26.6s|     1 |     0 | 19143 |     - |farkasdi|   0 |  11k| 322 |1179 |   0 | 28 |   0 |   0 | 2.188584e+06 | 2.212517e+06 |   1.09%| unknown
d26.6s|     1 |     0 | 19183 |     - |farkasdi|   0 |  11k| 322 |1179 |   0 | 28 |   0 |   0 | 2.188584e+06 | 2.210240e+06 |   0.99%| unknown
d26.7s|     1 |     0 | 19258 |     - |farkasdi|   0 |  11k| 322 |1179 |   0 | 28 |   0 |   0 | 2.188584e+06 | 2.208608e+06 |   0.91%| unknown
d26.7s|     1 |     0 | 19304 |     - |farkasdi|   0 |  11k| 322 |1179 |   0 | 28 |   0 |   0 | 2.188584e+06 | 2.205480e+06 |   0.77%| unknown
d26.7s|     1 |     0 | 19320 |     - |farkasdi|   0 |  11k| 322 |1179 |   0 | 28 |   0 |   0 | 2.188584e+06 | 2.202652e+06 |   0.64%| unknown
d26.7s|     1 |     0 | 19393 |     - |farkasdi|   0 |  11k| 322 |1179 |   0 | 28 |   0 |   0 | 2.188584e+06 | 2.200625e+06 |   0.55%| unknown
d26.7s|     1 |     0 | 19402 |     - |farkasdi|   0 |  11k| 322 |1179 |   0 | 28 |   0 |   0 | 2.188584e+06 | 2.198085e+06 |   0.43%| unknown
 time | node  | left  |LP iter|LP it/n|mem/heur|mdpt |vars |cons |rows |cuts |sepa|confs|strbr|  dualbound   | primalbound  |  gap   | compl. 
d26.8s|     1 |     0 | 19418 |     - |farkasdi|   0 |  11k| 322 |1179 |   0 | 28 |   0 |   0 | 2.188584e+06 | 2.195335e+06 |   0.31%| unknown
d26.8s|     1 |     0 | 19452 |     - |farkasdi|   0 |  11k| 322 |1179 |   0 | 28 |   0 |   0 | 2.188584e+06 | 2.192417e+06 |   0.18%| unknown
d26.8s|     1 |     0 | 19474 |     - |farkasdi|   0 |  11k| 322 |1179 |   0 | 28 |   0 |   0 | 2.188584e+06 | 2.192121e+06 |   0.16%| unknown
d26.8s|     1 |     0 | 19475 |     - |farkasdi|   0 |  11k| 322 |1179 |   0 | 28 |   0 |   0 | 2.188584e+06 | 2.192028e+06 |   0.16%| unknown
 27.1s|     1 |     0 | 19475 |     - |   117M |   0 |  11k| 322 |1179 | 872 | 28 |   0 |   0 | 2.188584e+06 | 2.192028e+06 |   0.16%| unknown
 28.0s|     1 |     0 | 20047 |     - |   118M |   0 |  11k| 322 |1206 | 899 | 29 |   0 |   0 | 2.188700e+06 | 2.192028e+06 |   0.15%| unknown
 28.3s|     1 |     0 | 20613 |     - |   118M |   0 |  11k| 322 |1220 | 913 | 30 |   0 |   0 | 2.188775e+06 | 2.192028e+06 |   0.15%| unknown
 40.0s|     1 |     2 | 20613 |     - |   118M |   0 |  11k| 322 |1220 | 913 | 30 |   0 |  28 | 2.188952e+06 | 2.192028e+06 |   0.14%| unknown
r89.5s|    29 |    30 | 34721 | 689.0 |intshift|  15 |  11k| 322 |1156 |1008 |  1 |   0 | 176 | 2.188973e+06 | 2.191256e+06 |   0.10%| unknown
r92.4s|    43 |    38 | 38036 | 538.3 |intshift|  18 |  11k| 322 |1174 |1035 |  1 |   0 | 178 | 2.188973e+06 | 2.190842e+06 |   0.09%| unknown
L97.6s|    80 |    68 | 43685 | 357.7 |    alns|  22 |  11k| 322 |1181 |1077 |  2 |   0 | 185 | 2.188973e+06 | 2.190464e+06 |   0.07%|  18.25%
L97.6s|    80 |    36 | 43685 | 357.7 |    alns|  22 |  11k| 322 |1181 |1077 |  2 |   0 | 185 | 2.188973e+06 | 2.189707e+06 |   0.03%|  18.36%
L97.7s|    80 |    30 | 43685 | 357.7 |    alns|  22 |  11k| 322 |1181 |1077 |  2 |   0 | 185 | 2.188973e+06 | 2.189643e+06 |   0.03%|  18.47%
 98.7s|   100 |    40 | 45033 | 299.0 |   129M |  23 |  11k| 322 |1166 |1077 |  2 |   0 | 185 | 2.189124e+06 | 2.189643e+06 |   0.02%|  33.84%

SCIP Status        : problem is solved [optimal solution found]
Solving Time (sec) : 103.36
Solving Nodes      : 174
Primal Bound       : +2.18964341953796e+06 (289 solutions)
Dual Bound         : +2.18964341953796e+06
Gap                : 0.00 %
Solve Status: optimal
Solve Time: 103.37 seconds
Objective Value: 2189643.42
